NAME: tsp_349
COMMENT: Random TSP instance
TYPE: TSP
DIMENSION: 50
EDGE_WEIGHT_TYPE: EUC_2D
NODE_COORD_SECTION
1 418 918
2 108 662
3 950 969
4 632 334
5 726 606
6 549 504
7 870 751
8 448 478
9 548 709
10 242 607
11 128 366
12 304 474
13 584 587
14 501 230
15 71 369
16 200 239
17 699 963
18 626 968
19 850 108
20 207 760
21 577 751
22 680 247
23 288 719
24 827 20
25 114 671
26 499 514
27 70 459
28 832 241
29 613 214
30 992 62
31 320 925
32 251 193
33 239 445
34 431 447
35 368 393
36 703 670
37 337 420
38 781 879
39 5 81
40 415 431
41 907 324
42 625 878
43 813 52
44 697 217
45 525 729
46 501 552
47 253 830
48 559 877
49 683 419
50 669 729
